SPARKNaCl/why3-z3/sparknacl-utils.adb_304_38_division_check_1.smt2
;; produced by z3_gnatprove.drv ;;
(set-info :smt-lib-version 2.5)
(set-info :source |VC generated by SPARK 2014|)
(set-info :category industrial)
(set-info :status unknown)
;;; generated by SMT-LIB2 driver
;;; SMT-LIB2 driver: bit-vectors, common part
;;; SMT-LIB2: integer arithmetic
(define-fun __cdiv ((x Int) (y Int)) Int (ite (>= x 0) (div x y) (- (div (- x) y))))
(define-fun __cmod ((x Int) (y Int)) Int (ite (>= x 0) (mod x y) (- (mod (- x) y))))
(declare-datatypes ()
  ((int__ref (int__refqtmk (int__content Int)))))

;; "mod"
(define-fun mod1 ((x Int) (y Int)) Int
  (ite (<= 0 y) (mod x y) (- (mod (- x) y))))

(declare-sort gf32_any_limb 0)

;; "gf32_any_limb'int"
(declare-fun gf32_any_limbqtint (gf32_any_limb) Int)

;; "gf32_any_limb'axiom"
(assert
  (forall ((i gf32_any_limb))
    (and
      (<= (- 65536) (gf32_any_limbqtint i))
      (<= (gf32_any_limbqtint i) 132051011))))

;; "in_range"
(define-fun in_range ((x Int)) Bool
  (and (<= (- 65536) x) (<= x 132051011)))

;; "to_rep"
(define-fun to_rep ((x gf32_any_limb)) Int
  (gf32_any_limbqtint x))

;; "of_rep"
(declare-fun of_rep (Int) gf32_any_limb)

;; "inversion_axiom"
(assert
  (forall ((x gf32_any_limb))
    (! (= (of_rep (to_rep x)) x) :pattern ((to_rep x)) )))

;; "range_axiom"
(assert
  (forall ((x gf32_any_limb))
    (! (in_range (to_rep x)) :pattern ((to_rep x)) )))

;; "coerce_axiom"
(assert
  (forall ((x Int))
    (! (=> (in_range x) (= (to_rep (of_rep x)) x)) :pattern ((to_rep
                                                               (of_rep x))) )))

(declare-sort map1 0)

(declare-datatypes ()
  ((map__ref (map__refqtmk (map__content map1)))))

;; "has_bounds"
(declare-fun has_bounds (map1
  Int
  Int) Bool)

;; "get"
(declare-fun get (map1
  Int) gf32_any_limb)

;; "set"
(declare-fun set (map1
  Int
  gf32_any_limb) map1)

;; "set_eq"
(assert
  (forall ((a map1) (i Int) (v gf32_any_limb))
    (! (= (get (set a i v) i) v) :pattern ((set a i v)) )))

;; "set_neq"
(assert
  (forall ((a map1) (i Int) (v gf32_any_limb))
    (! (forall ((j Int))
         (! (=> (not (= i j)) (= (get (set a i v) j) (get a j))) :pattern (
         (get
           a
           j)) :pattern ((get (set a i v) j)) )) :pattern ((set a i v)) )))

;; "set_has_bounds"
(assert
  (forall ((a map1) (i Int) (f Int) (l Int) (v gf32_any_limb))
    (! (=>
         (and (<= f i) (<= i l))
         (=> (has_bounds a f l) (has_bounds (set a i v) f l))) :pattern (
    (has_bounds
      (set a i v)
      f
      l)) )))

(declare-const t map1)

(declare-const gf32_0 map1)

;; "power"
(declare-fun power (Int
  Int) Int)

;; "Power_0"
(assert (forall ((x Int)) (= (power x 0) 1)))

;; "Power_s"
(assert
  (forall ((x Int) (n Int))
    (=> (<= 0 n) (= (power x (+ n 1)) (* x (power x n))))))

;; "Power_s_alt"
(assert
  (forall ((x Int) (n Int))
    (=> (< 0 n) (= (power x n) (* x (power x (- n 1)))))))

;; "Power_1"
(assert (forall ((x Int)) (= (power x 1) x)))

;; "Power_sum"
(assert
  (forall ((x Int) (n Int) (m Int))
    (=>
      (<= 0 n)
      (=> (<= 0 m) (= (power x (+ n m)) (* (power x n) (power x m)))))))

;; "Power_mult"
(assert
  (forall ((x Int) (n Int) (m Int))
    (=> (<= 0 n) (=> (<= 0 m) (= (power x (* n m)) (power (power x n) m))))))

;; "Power_comm1"
(assert
  (forall ((x Int) (y Int))
    (=>
      (= (* x y) (* y x))
      (forall ((n Int))
        (=> (<= 0 n) (= (* (power x n) y) (* y (power x n))))))))

;; "Power_comm2"
(assert
  (forall ((x Int) (y Int))
    (=>
      (= (* x y) (* y x))
      (forall ((n Int))
        (=> (<= 0 n) (= (power (* x y) n) (* (power x n) (power y n))))))))

;; "Power_non_neg"
(assert
  (forall ((x Int) (y Int)) (=> (and (<= 0 x) (<= 0 y)) (<= 0 (power x y)))))

;; "Power_pos"
(assert
  (forall ((x Int) (y Int)) (=> (and (< 0 x) (<= 0 y)) (< 0 (power x y)))))

;; "Power_monotonic"
(assert
  (forall ((x Int) (n Int) (m Int))
    (=> (and (< 0 x) (and (<= 0 n) (<= n m))) (<= (power x n) (power x m)))))

;; "shift_right_arithmetic"
(define-fun shift_right_arithmetic ((x Int) (n Int) (us Int)) Int
  (ite (< x 0) (- (__cdiv (+ x 1) (power 2 n)) 1) (__cdiv x (power 2 n))))

;; "in_range"
(define-fun in_range1 ((x Int)) Bool
  (and (<= (- 2147483648) x) (<= x 2147483647)))

;; "asr32_16"
(declare-fun asr32_16 (Int) Int)

;; "asr32_16__function_guard"
(declare-fun asr32_16__function_guard (Int
  Int) Bool)

;; "in_range"
(define-fun in_range2 ((x Int)) Bool
  (and (<= 0 x) (<= x 65535)))

;; "dynamic_invariant"
(define-fun dynamic_invariant ((temp___expr_547 map1) (temp___is_init_543 Bool) (temp___skip_constant_544 Bool) (temp___do_toplevel_545 Bool) (temp___do_typ_inv_546 Bool)) Bool
  (and
    (=>
      (= temp___is_init_543 true)
      (=>
        (= temp___do_toplevel_545 true)
        (forall ((i Int))
          (=>
            (and (<= 0 i) (<= i 15))
            (in_range2 (to_rep (get temp___expr_547 i)))))))
    (has_bounds temp___expr_547 0 15)))

;; "in_range"
(define-fun in_range3 ((x Int)) Bool
  (and (<= (- 65536) x) (<= x 65535)))

;; "dynamic_invariant"
(define-fun dynamic_invariant1 ((temp___expr_598 map1) (temp___is_init_594 Bool) (temp___skip_constant_595 Bool) (temp___do_toplevel_596 Bool) (temp___do_typ_inv_597 Bool)) Bool
  (and
    (=>
      (= temp___is_init_594 true)
      (=>
        (= temp___do_toplevel_596 true)
        (and
          (in_range3 (to_rep (get temp___expr_598 15)))
          (forall ((k Int))
            (=>
              (and (<= 0 k) (<= k 14))
              (in_range2 (to_rep (get temp___expr_598 k))))))))
    (has_bounds temp___expr_598 0 15)))

;; "in_range"
(define-fun in_range4 ((x Int)) Bool
  (and (<= 0 x) (<= x 1)))

;; "sparknacl__gf32_0__aggregate_def"
(declare-fun sparknacl__gf32_0__aggregate_def (Int) map1)

;; "gf32_0__def_axiom"
(assert
  (= gf32_0 (let ((temp___211 (sparknacl__gf32_0__aggregate_def 0)))
              (let ((temp___212 temp___211)) temp___212))))

(declare-const rliteral gf32_any_limb)

;; "rliteral_axiom"
(assert (= (gf32_any_limbqtint rliteral) 0))

;; "def_axiom"
(assert
  (forall ((temp___207 Int))
    (let ((temp___208 (sparknacl__gf32_0__aggregate_def temp___207)))
      (and
        (has_bounds temp___208 0 15)
        (forall ((temp___209 Int))
          (! (=>
               (and (<= 0 temp___209) (<= temp___209 15))
               (= (get temp___208 temp___209) rliteral)) :pattern ((get
                                                                    temp___208
                                                                    temp___209)) ))))))

(declare-const result__ map1)

(declare-const carry Int)

(declare-const r map1)

;; "r'unused"
(define-fun rqtunused () map__ref
  (map__refqtmk r))

;; "carry'unused"
(define-fun carryqtunused () int__ref
  (int__refqtmk carry))

;; "Assume"
(assert (dynamic_invariant gf32_0 true false true true))

(declare-const temp___1142 map1)

;; "H"
(assert (has_bounds temp___1142 0 15))

;; "H"
(assert
  (forall ((temp___210 Int))
    (! (=>
         (and (<= 0 temp___210) (<= temp___210 15))
         (= (get temp___1142 temp___210) rliteral)) :pattern ((get
                                                                temp___1142
                                                                temp___210)) )))

;; "H"
(assert (= temp___1142 (sparknacl__gf32_0__aggregate_def 0)))

;; "sparknacl__gf32_0__aggregate_def'result'unused"
(define-fun sparknacl__gf32_0__aggregate_defqtresultqtunused () map1
  temp___1142)

;; "Assume"
(assert (= temp___1142 gf32_0))

;; "Assume"
(assert (dynamic_invariant1 t true false true true))

;; "Assume"
(assert (dynamic_invariant1 result__ false false true true))

;; "Assume"
(assert (<= (- 32768) (to_rep (get t 15))))

;; "Assume"
(assert true)

;; "Assume"
(assert (in_range4 carry))

;; "Assume"
(assert true)

;; "Assume"
(assert (has_bounds r 0 15))

(declare-const r1 map1)

;; "r'unused"
(define-fun rqtunused1 () map__ref
  (map__refqtmk r1))

;; "H"
(assert (= r1 gf32_0))

;; "o"
(define-fun o () gf32_any_limb
  (get t 0))

;; "get'result'unused"
(define-fun getqtresultqtunused () gf32_any_limb
  o)

(declare-const o1 Int)

;; "Ensures"
(assert (= (to_rep o) o1))

;; "to_rep'result'unused"
(define-fun to_repqtresultqtunused () Int
  o1)

;; "o"
(define-fun o2 () Int
  (- o1 65517))

;; "infix -'result'unused"
(define-fun infix_mnqtresultqtunused () Int
  o2)

;; "Ensures"
(assert (in_range o2))

;; "range_check_'result'unused"
(define-fun range_check_qtresultqtunused () Int
  o2)

(declare-const o3 gf32_any_limb)

;; "Ensures"
(assert (= (to_rep o3) o2))

;; "of_rep'result'unused"
(define-fun of_repqtresultqtunused () gf32_any_limb
  o3)

;; "map__content'result'unused"
(define-fun map__contentqtresultqtunused () map1
  r1)

;; "o"
(define-fun o4 () map1
  (set r1 0 o3))

;; "set'result'unused"
(define-fun setqtresultqtunused () map1
  o4)

(declare-const r2 map1)

;; "r'unused"
(define-fun rqtunused2 () map__ref
  (map__refqtmk r2))

;; "H"
(assert (= r2 o4))

(declare-const carry1 Int)

(declare-const r3 map1)

;; "r'unused"
(define-fun rqtunused3 () map__ref
  (map__refqtmk r3))

;; "carry'unused"
(define-fun carryqtunused1 () int__ref
  (int__refqtmk carry1))

(declare-const i Int)

(declare-const iqtunused int__ref)

;; "H"
(assert (= iqtunused (int__refqtmk i)))

;; "H"
(assert (= i 1))

(declare-const int__contentqtresultqtunused Int)

;; "H"
(assert (= int__contentqtresultqtunused i))

(declare-const o5 Bool)

;; "H"
(assert (= o5 (ite (<= i 14) true false)))

(declare-const infix_lseqqtresultqtunused Bool)

;; "H"
(assert (= infix_lseqqtresultqtunused o5))

(declare-const int__contentqtresultqtunused1 Int)

;; "H"
(assert (= int__contentqtresultqtunused1 i))

(declare-const o6 Bool)

;; "H"
(assert (= o6 (ite (<= 1 i) true false)))

(declare-const infix_lseqqtresultqtunused1 Bool)

;; "H"
(assert (= infix_lseqqtresultqtunused1 o6))

(declare-const o7 Bool)

;; "H"
(assert (= o7 (and o6 o5)))

(declare-const andbqtresultqtunused Bool)

;; "H"
(assert (= andbqtresultqtunused o7))

(declare-const temp___loop_entry_1104qtunused map1)

(declare-const map__contentqtresultqtunused1 map1)

(declare-const temp___loop_entry_1102qtunused Int)

(declare-const int__contentqtresultqtunused2 Int)

(declare-const int__contentqtresultqtunused3 Int)

(declare-const o8 Int)

(declare-const infix_mnqtresultqtunused1 Int)

(declare-const map__contentqtresultqtunused2 map1)

(declare-const o9 gf32_any_limb)

(declare-const getqtresultqtunused1 gf32_any_limb)

(declare-const o10 Int)

(declare-const to_repqtresultqtunused1 Int)

(declare-const o11 Int)

(declare-const asr32_16qtresultqtunused Int)

(declare-const o12 Int)

(declare-const mod_qtresultqtunused Int)

(declare-const carry2 Int)

(declare-const carryqtunused2 int__ref)

(declare-const int__contentqtresultqtunused4 Int)

(declare-const int__contentqtresultqtunused5 Int)

(declare-const o13 gf32_any_limb)

(declare-const getqtresultqtunused2 gf32_any_limb)

(declare-const o14 Int)

(declare-const to_repqtresultqtunused2 Int)

(declare-const o15 Int)

(declare-const infix_mnqtresultqtunused2 Int)

(declare-const o16 Int)

(declare-const infix_mnqtresultqtunused3 Int)

(declare-const range_check_qtresultqtunused1 Int)

(declare-const o17 gf32_any_limb)

(declare-const of_repqtresultqtunused1 gf32_any_limb)

(declare-const int__contentqtresultqtunused6 Int)

(declare-const map__contentqtresultqtunused3 map1)

(declare-const o18 map1)

(declare-const setqtresultqtunused1 map1)

(declare-const r4 map1)

(declare-const rqtunused4 map__ref)

(declare-const int__contentqtresultqtunused7 Int)

(declare-const o19 Int)

(declare-const infix_mnqtresultqtunused4 Int)

(declare-const map__contentqtresultqtunused4 map1)

(declare-const o20 gf32_any_limb)

(declare-const getqtresultqtunused3 gf32_any_limb)

(declare-const o21 Int)

(declare-const to_repqtresultqtunused3 Int)

(declare-const o22 Int)

(declare-const mod_qtresultqtunused1 Int)

(declare-const o23 gf32_any_limb)

(declare-const of_repqtresultqtunused2 gf32_any_limb)

(declare-const int__contentqtresultqtunused8 Int)

(declare-const o24 Int)

(declare-const infix_mnqtresultqtunused5 Int)

(declare-const map__contentqtresultqtunused5 map1)

(declare-const o25 map1)

(declare-const setqtresultqtunused2 map1)

(declare-const r5 map1)

(declare-const rqtunused5 map__ref)

(declare-const usfqtunused Bool)

(declare-const anyqtresultqtunused Bool)

(declare-const i1 Int)

(declare-const iqtunused1 int__ref)

(declare-const int__contentqtresultqtunused9 Int)

(declare-const infix_eqqtresultqtunused Bool)

(declare-const usf Int)

(declare-const anyqtresultqtunused1 Int)

(declare-const jqtunused Int)

(declare-const int__contentqtresultqtunused10 Int)

(declare-const o26 Int)

(declare-const infix_mnqtresultqtunused6 Int)

(declare-const o27 Bool)

(declare-const infix_lseqqtresultqtunused2 Bool)

(declare-const o28 Bool)

(declare-const infix_lseqqtresultqtunused3 Bool)

(declare-const andbqtresultqtunused1 Bool)

;; "H"
(assert
  (ite (= o7 true)
    (and
      (= temp___loop_entry_1104qtunused r2)
      (and
        (= map__contentqtresultqtunused1 r2)
        (and
          (= temp___loop_entry_1102qtunused carry)
          (and
            (= int__contentqtresultqtunused2 carry)
            (and
              (= int__contentqtresultqtunused3 i)
              (and
                (= o8 (- i 1))
                (and
                  (= infix_mnqtresultqtunused1 o8)
                  (and
                    (= map__contentqtresultqtunused2 r2)
                    (and
                      (= o9 (get r2 o8))
                      (and
                        (= getqtresultqtunused1 o9)
                        (and
                          (= (to_rep o9) o10)
                          (and
                            (= to_repqtresultqtunused1 o10)
                            (and
                              (= o11 (asr32_16 o10))
                              (and
                                (and
                                  (asr32_16__function_guard o11 o10)
                                  (and
                                    (in_range1 o11)
                                    (and
                                      (= o11 (shift_right_arithmetic
                                               o10
                                               16
                                               32))
                                      (ite (<= 0 o10)
                                        (= o11 (__cdiv o10 65536))
                                        (= o11 (- (__cdiv (+ o10 1) 65536) 1))))))
                                (and
                                  (= asr32_16qtresultqtunused o11)
                                  (and
                                    (= o12 (mod1 o11 2))
                                    (and
                                      (= mod_qtresultqtunused o12)
                                      (and
                                        (= carryqtunused2 (int__refqtmk
                                                            carry2))
                                        (and
                                          (= carry2 o12)
                                          (and
                                            (= int__contentqtresultqtunused4 
                                            carry2)
                                            (and
                                              (= int__contentqtresultqtunused5 
                                              i)
                                              (and
                                                (= o13 (get t i))
                                                (and
                                                  (= getqtresultqtunused2 
                                                  o13)
                                                  (and
                                                    (= (to_rep o13) o14)
                                                    (and
                                                      (= to_repqtresultqtunused2 
                                                      o14)
                                                      (and
                                                        (= o15 (- o14 65535))
                                                        (and
                                                          (= infix_mnqtresultqtunused2 
                                                          o15)
                                                          (and
                                                            (= o16 (- 
                                                            o15 carry2))
                                                            (and
                                                              (= infix_mnqtresultqtunused3 
                                                              o16)
                                                              (and
                                                                (in_range
                                                                  o16)
                                                                (and
                                                                  (= 
                                                                  range_check_qtresultqtunused1 
                                                                  o16)
                                                                  (and
                                                                    (= 
                                                                    (to_rep
                                                                    o17) 
                                                                    o16)
                                                                    (and
                                                                    (= 
                                                                    of_repqtresultqtunused1 
                                                                    o17)
                                                                    (and
                                                                    (= 
                                                                    int__contentqtresultqtunused6 
                                                                    i)
                                                                    (and
                                                                    (= 
                                                                    map__contentqtresultqtunused3 
                                                                    r2)
                                                                    (and
                                                                    (= 
                                                                    o18 
                                                                    (set
                                                                    r2
                                                                    i
                                                                    o17))
                                                                    (and
                                                                    (= 
                                                                    setqtresultqtunused1 
                                                                    o18)
                                                                    (and
                                                                    (= 
                                                                    rqtunused4 
                                                                    (map__refqtmk
                                                                    r4))
                                                                    (and
                                                                    (= 
                                                                    r4 
                                                                    o18)
                                                                    (and
                                                                    (= 
                                                                    int__contentqtresultqtunused7 
                                                                    i)
                                                                    (and
                                                                    (= 
                                                                    o19 (- 
                                                                    i 1))
                                                                    (and
                                                                    (= 
                                                                    infix_mnqtresultqtunused4 
                                                                    o19)
                                                                    (and
                                                                    (= 
                                                                    map__contentqtresultqtunused4 
                                                                    r4)
                                                                    (and
                                                                    (= 
                                                                    o20 
                                                                    (get
                                                                    r4
                                                                    o19))
                                                                    (and
                                                                    (= 
                                                                    getqtresultqtunused3 
                                                                    o20)
                                                                    (and
                                                                    (= 
                                                                    (to_rep
                                                                    o20) 
                                                                    o21)
                                                                    (and
                                                                    (= 
                                                                    to_repqtresultqtunused3 
                                                                    o21)
                                                                    (and
                                                                    (= 
                                                                    o22 
                                                                    (mod1
                                                                    o21
                                                                    65536))
                                                                    (and
                                                                    (= 
                                                                    mod_qtresultqtunused1 
                                                                    o22)
                                                                    (and
                                                                    (= 
                                                                    (to_rep
                                                                    o23) 
                                                                    o22)
                                                                    (and
                                                                    (= 
                                                                    of_repqtresultqtunused2 
                                                                    o23)
                                                                    (and
                                                                    (= 
                                                                    int__contentqtresultqtunused8 
                                                                    i)
                                                                    (and
                                                                    (= 
                                                                    o24 (- 
                                                                    i 1))
                                                                    (and
                                                                    (= 
                                                                    infix_mnqtresultqtunused5 
                                                                    o24)
                                                                    (and
                                                                    (= 
                                                                    map__contentqtresultqtunused5 
                                                                    r4)
                                                                    (and
                                                                    (= 
                                                                    o25 
                                                                    (set
                                                                    r4
                                                                    o24
                                                                    o23))
                                                                    (and
                                                                    (= 
                                                                    setqtresultqtunused2 
                                                                    o25)
                                                                    (and
                                                                    (= 
                                                                    rqtunused5 
                                                                    (map__refqtmk
                                                                    r5))
                                                                    (and
                                                                    (= 
                                                                    r5 
                                                                    o25)
                                                                    (and
                                                                    (and
                                                                    (= 
                                                                    anyqtresultqtunused1 
                                                                    usf)
                                                                    (and
                                                                    (= 
                                                                    jqtunused 
                                                                    usf)
                                                                    (and
                                                                    (= 
                                                                    int__contentqtresultqtunused10 
                                                                    i)
                                                                    (and
                                                                    (= 
                                                                    o26 (- 
                                                                    i 1))
                                                                    (and
                                                                    (= 
                                                                    infix_mnqtresultqtunused6 
                                                                    o26)
                                                                    (and
                                                                    (= 
                                                                    o27 
                                                                    (ite (<= 
                                                                    usf 
                                                                    o26)
                                                                    true
                                                                    false))
                                                                    (and
                                                                    (= 
                                                                    infix_lseqqtresultqtunused2 
                                                                    o27)
                                                                    (and
                                                                    (= 
                                                                    o28 
                                                                    (ite (<= 0 
                                                                    usf)
                                                                    true
                                                                    false))
                                                                    (and
                                                                    (= 
                                                                    infix_lseqqtresultqtunused3 
                                                                    o28)
                                                                    (= 
                                                                    andbqtresultqtunused1 (and 
                                                                    o28 
                                                                    o27)))))))))))
                                                                    (and
                                                                    (= 
                                                                    usfqtunused 
                                                                    (ite 
                                                                    (forall 
                                                                    ((j Int))
                                                                    (=>
                                                                    (and
                                                                    (<= 0 j)
                                                                    (<= j (- 
                                                                    i 1)))
                                                                    (in_range2
                                                                    (to_rep
                                                                    (get
                                                                    r5
                                                                    j)))))
                                                                    true
                                                                    false))
                                                                    (and
                                                                    (= 
                                                                    anyqtresultqtunused 
                                                                    (ite 
                                                                    (forall 
                                                                    ((j Int))
                                                                    (=>
                                                                    (and
                                                                    (<= 0 j)
                                                                    (<= j (- 
                                                                    i 1)))
                                                                    (in_range2
                                                                    (to_rep
                                                                    (get
                                                                    r5
                                                                    j)))))
                                                                    true
                                                                    false))
                                                                    (and
                                                                    (= 
                                                                    iqtunused1 
                                                                    (int__refqtmk
                                                                    i1))
                                                                    (and
                                                                    (forall 
                                                                    ((j Int))
                                                                    (=>
                                                                    (and
                                                                    (<= 0 j)
                                                                    (<= j (- 
                                                                    i1 1)))
                                                                    (in_range2
                                                                    (to_rep
                                                                    (get
                                                                    r3
                                                                    j)))))
                                                                    (and
                                                                    (= (and 
                                                                    (ite 
                                                                    (and
                                                                    (in_range4
                                                                    carry1)
                                                                    (has_bounds
                                                                    r3
                                                                    0
                                                                    15))
                                                                    true
                                                                    false) 
                                                                    (ite 
                                                                    (and
                                                                    (<= 1 
                                                                    i1)
                                                                    (<= 
                                                                    i1 14))
                                                                    true
                                                                    false)) true)
                                                                    (and
                                                                    (= 
                                                                    int__contentqtresultqtunused9 
                                                                    i1)
                                                                    (and
                                                                    (= 
                                                                    infix_eqqtresultqtunused 
                                                                    (ite (= 
                                                                    i1 14)
                                                                    true
                                                                    false))
                                                                    (= 
                                                                    i1 14))))))))))))))))))))))))))))))))))))))))))))))))))))))))))))))))))))
    (and (= carry1 carry) (= r3 r2))))

;; "Assert"
(assert
  (forall ((j Int))
    (=> (and (<= 0 j) (<= j 13)) (in_range2 (to_rep (get r3 j))))))

;; "map__content'result'unused"
(define-fun map__contentqtresultqtunused6 () map1
  r3)

;; "o"
(define-fun o29 () gf32_any_limb
  (get r3 14))

;; "get'result'unused"
(define-fun getqtresultqtunused4 () gf32_any_limb
  o29)

(declare-const o30 Int)

;; "Ensures"
(assert (= (to_rep o29) o30))

;; "to_rep'result'unused"
(define-fun to_repqtresultqtunused4 () Int
  o30)

;; "o"
(define-fun o31 () Int
  (asr32_16 o30))

;; "H"
(assert (asr32_16__function_guard o31 o30))

;; "H"
(assert (in_range1 o31))

;; "H"
(assert (= o31 (shift_right_arithmetic o30 16 32)))

;; "H"
(assert
  (ite (<= 0 o30)
    (= o31 (__cdiv o30 65536))
    (= o31 (- (__cdiv (+ o30 1) 65536) 1))))

;; "asr32_16'result'unused"
(define-fun asr32_16qtresultqtunused1 () Int
  o31)

;; Goal "def'vc"
;; File "sparknacl-utils.adb", line 260, characters 0-0
(assert
  (not (not (= 2 0))))

(check-sat)
